p cnf 452 2068
c p weight 184 0 0
c p weight -184 1 0
c p weight 185 1 0
c p weight -185 1 0
c p weight 449 -1 0
c p weight -449 1 0
c p weight 452 0.5 0
452 0
-179 0
-177 0
-175 0
-173 0
-171 0
-169 0
-167 0
-165 0
-163 0
-161 0
-159 0
-157 0
-155 0
-153 0
-151 0
-149 0
-147 0
-145 0
-143 0
-141 0
-139 0
-137 0
-135 0
-133 0
-131 0
-129 0
-127 0
-125 0
-123 0
-121 0
-119 0
-117 0
-115 0
-113 0
-111 0
-109 0
-107 0
-105 0
-103 0
-101 0
-99 0
-97 0
-95 0
-93 0
-91 0
-89 0
-87 0
-85 0
-83 0
-81 0
-79 0
-77 0
-75 0
-73 0
-71 0
-69 0
-67 0
-65 0
-63 0
-61 0
-59 0
-57 0
-55 0
-53 0
-51 0
-49 0
-47 0
-45 0
-43 0
-41 0
-39 0
-37 0
-35 0
-33 0
-31 0
-29 0
-27 0
-25 0
-23 0
-21 0
-19 0
-17 0
-15 0
-13 0
-11 0
-9 0
-7 0
-5 0
-3 0
-1 0
180 -179 177 0
180 -179 178 0
-180 179 177 0
-180 179 178 0
180 179 -177 -178 0
-180 -179 -177 -178 0
181 177 -178 0
181 -177 178 0
-181 177 178 0
-181 -177 -178 0
182 183 -180 0
182 -180 181 0
-182 183 180 0
-182 180 181 0
182 -180 -177 0
-182 180 -177 0
182 -183 180 177 -181 0
-182 -183 -180 177 -181 0
183 -177 181 0
-183 177 181 0
-184 181 0
183 -184 -177 0
-183 -184 177 0
183 184 177 -181 0
-183 184 -177 -181 0
-185 181 0
183 -185 177 0
-183 -185 -177 0
183 185 -177 -181 0
-183 185 177 -181 0
186 -182 183 0
186 -182 181 0
-186 182 183 0
-186 182 181 0
186 182 -183 -181 0
-186 -182 -183 -181 0
187 183 -181 0
187 -183 181 0
-187 183 181 0
-187 -183 -181 0
188 -186 183 0
188 -186 176 0
-188 186 183 0
-188 186 176 0
188 -186 175 -187 0
188 -186 -175 187 0
-188 186 175 -187 0
-188 186 -175 187 0
188 186 -183 175 187 -176 0
188 186 -183 -175 -187 -176 0
-188 -186 -183 175 187 -176 0
-188 -186 -183 -175 -187 -176 0
190 183 -175 0
190 -183 175 0
-190 183 175 0
-190 -183 -175 0
189 187 -176 0
189 -187 176 0
-189 187 176 0
-189 -187 -176 0
191 -188 190 0
191 -188 174 0
-191 188 190 0
-191 188 174 0
191 -188 173 -176 0
191 -188 -173 176 0
-191 188 173 -176 0
-191 188 -173 176 0
191 188 -190 173 176 -174 0
191 188 -190 -173 -176 -174 0
-191 -188 -190 173 176 -174 0
-191 -188 -190 -173 -176 -174 0
193 190 -173 0
193 -190 173 0
-193 190 173 0
-193 -190 -173 0
192 176 -174 0
192 -176 174 0
-192 176 174 0
-192 -176 -174 0
194 -191 193 0
194 -191 172 0
-194 191 193 0
-194 191 172 0
194 -191 171 -174 0
194 -191 -171 174 0
-194 191 171 -174 0
-194 191 -171 174 0
194 191 -193 171 174 -172 0
194 191 -193 -171 -174 -172 0
-194 -191 -193 171 174 -172 0
-194 -191 -193 -171 -174 -172 0
196 193 -171 0
196 -193 171 0
-196 193 171 0
-196 -193 -171 0
195 174 -172 0
195 -174 172 0
-195 174 172 0
-195 -174 -172 0
197 -194 196 0
197 -194 170 0
-197 194 196 0
-197 194 170 0
197 -194 169 -172 0
197 -194 -169 172 0
-197 194 169 -172 0
-197 194 -169 172 0
197 194 -196 169 172 -170 0
197 194 -196 -169 -172 -170 0
-197 -194 -196 169 172 -170 0
-197 -194 -196 -169 -172 -170 0
199 196 -169 0
199 -196 169 0
-199 196 169 0
-199 -196 -169 0
198 172 -170 0
198 -172 170 0
-198 172 170 0
-198 -172 -170 0
200 -197 199 0
200 -197 168 0
-200 197 199 0
-200 197 168 0
200 -197 167 -170 0
200 -197 -167 170 0
-200 197 167 -170 0
-200 197 -167 170 0
200 197 -199 167 170 -168 0
200 197 -199 -167 -170 -168 0
-200 -197 -199 167 170 -168 0
-200 -197 -199 -167 -170 -168 0
202 199 -167 0
202 -199 167 0
-202 199 167 0
-202 -199 -167 0
201 170 -168 0
201 -170 168 0
-201 170 168 0
-201 -170 -168 0
203 -200 202 0
203 -200 166 0
-203 200 202 0
-203 200 166 0
203 -200 165 -168 0
203 -200 -165 168 0
-203 200 165 -168 0
-203 200 -165 168 0
203 200 -202 165 168 -166 0
203 200 -202 -165 -168 -166 0
-203 -200 -202 165 168 -166 0
-203 -200 -202 -165 -168 -166 0
205 202 -165 0
205 -202 165 0
-205 202 165 0
-205 -202 -165 0
204 168 -166 0
204 -168 166 0
-204 168 166 0
-204 -168 -166 0
206 -203 205 0
206 -203 164 0
-206 203 205 0
-206 203 164 0
206 -203 163 -166 0
206 -203 -163 166 0
-206 203 163 -166 0
-206 203 -163 166 0
206 203 -205 163 166 -164 0
206 203 -205 -163 -166 -164 0
-206 -203 -205 163 166 -164 0
-206 -203 -205 -163 -166 -164 0
208 205 -163 0
208 -205 163 0
-208 205 163 0
-208 -205 -163 0
207 166 -164 0
207 -166 164 0
-207 166 164 0
-207 -166 -164 0
209 -206 208 0
209 -206 162 0
-209 206 208 0
-209 206 162 0
209 -206 161 -164 0
209 -206 -161 164 0
-209 206 161 -164 0
-209 206 -161 164 0
209 206 -208 161 164 -162 0
209 206 -208 -161 -164 -162 0
-209 -206 -208 161 164 -162 0
-209 -206 -208 -161 -164 -162 0
211 208 -161 0
211 -208 161 0
-211 208 161 0
-211 -208 -161 0
210 164 -162 0
210 -164 162 0
-210 164 162 0
-210 -164 -162 0
212 -209 211 0
212 -209 160 0
-212 209 211 0
-212 209 160 0
212 -209 159 -162 0
212 -209 -159 162 0
-212 209 159 -162 0
-212 209 -159 162 0
212 209 -211 159 162 -160 0
212 209 -211 -159 -162 -160 0
-212 -209 -211 159 162 -160 0
-212 -209 -211 -159 -162 -160 0
214 211 -159 0
214 -211 159 0
-214 211 159 0
-214 -211 -159 0
213 162 -160 0
213 -162 160 0
-213 162 160 0
-213 -162 -160 0
215 -212 214 0
215 -212 158 0
-215 212 214 0
-215 212 158 0
215 -212 157 -160 0
215 -212 -157 160 0
-215 212 157 -160 0
-215 212 -157 160 0
215 212 -214 157 160 -158 0
215 212 -214 -157 -160 -158 0
-215 -212 -214 157 160 -158 0
-215 -212 -214 -157 -160 -158 0
217 214 -157 0
217 -214 157 0
-217 214 157 0
-217 -214 -157 0
216 160 -158 0
216 -160 158 0
-216 160 158 0
-216 -160 -158 0
218 -215 217 0
218 -215 156 0
-218 215 217 0
-218 215 156 0
218 -215 155 -158 0
218 -215 -155 158 0
-218 215 155 -158 0
-218 215 -155 158 0
218 215 -217 155 158 -156 0
218 215 -217 -155 -158 -156 0
-218 -215 -217 155 158 -156 0
-218 -215 -217 -155 -158 -156 0
220 217 -155 0
220 -217 155 0
-220 217 155 0
-220 -217 -155 0
219 158 -156 0
219 -158 156 0
-219 158 156 0
-219 -158 -156 0
221 -218 220 0
221 -218 154 0
-221 218 220 0
-221 218 154 0
221 -218 153 -156 0
221 -218 -153 156 0
-221 218 153 -156 0
-221 218 -153 156 0
221 218 -220 153 156 -154 0
221 218 -220 -153 -156 -154 0
-221 -218 -220 153 156 -154 0
-221 -218 -220 -153 -156 -154 0
223 220 -153 0
223 -220 153 0
-223 220 153 0
-223 -220 -153 0
222 156 -154 0
222 -156 154 0
-222 156 154 0
-222 -156 -154 0
224 -221 223 0
224 -221 152 0
-224 221 223 0
-224 221 152 0
224 -221 151 -154 0
224 -221 -151 154 0
-224 221 151 -154 0
-224 221 -151 154 0
224 221 -223 151 154 -152 0
224 221 -223 -151 -154 -152 0
-224 -221 -223 151 154 -152 0
-224 -221 -223 -151 -154 -152 0
226 223 -151 0
226 -223 151 0
-226 223 151 0
-226 -223 -151 0
225 154 -152 0
225 -154 152 0
-225 154 152 0
-225 -154 -152 0
227 -224 226 0
227 -224 150 0
-227 224 226 0
-227 224 150 0
227 -224 149 -152 0
227 -224 -149 152 0
-227 224 149 -152 0
-227 224 -149 152 0
227 224 -226 149 152 -150 0
227 224 -226 -149 -152 -150 0
-227 -224 -226 149 152 -150 0
-227 -224 -226 -149 -152 -150 0
229 226 -149 0
229 -226 149 0
-229 226 149 0
-229 -226 -149 0
228 152 -150 0
228 -152 150 0
-228 152 150 0
-228 -152 -150 0
230 -227 229 0
230 -227 148 0
-230 227 229 0
-230 227 148 0
230 -227 147 -150 0
230 -227 -147 150 0
-230 227 147 -150 0
-230 227 -147 150 0
230 227 -229 147 150 -148 0
230 227 -229 -147 -150 -148 0
-230 -227 -229 147 150 -148 0
-230 -227 -229 -147 -150 -148 0
232 229 -147 0
232 -229 147 0
-232 229 147 0
-232 -229 -147 0
231 150 -148 0
231 -150 148 0
-231 150 148 0
-231 -150 -148 0
233 -230 232 0
233 -230 146 0
-233 230 232 0
-233 230 146 0
233 -230 145 -148 0
233 -230 -145 148 0
-233 230 145 -148 0
-233 230 -145 148 0
233 230 -232 145 148 -146 0
233 230 -232 -145 -148 -146 0
-233 -230 -232 145 148 -146 0
-233 -230 -232 -145 -148 -146 0
235 232 -145 0
235 -232 145 0
-235 232 145 0
-235 -232 -145 0
234 148 -146 0
234 -148 146 0
-234 148 146 0
-234 -148 -146 0
236 -233 235 0
236 -233 144 0
-236 233 235 0
-236 233 144 0
236 -233 143 -146 0
236 -233 -143 146 0
-236 233 143 -146 0
-236 233 -143 146 0
236 233 -235 143 146 -144 0
236 233 -235 -143 -146 -144 0
-236 -233 -235 143 146 -144 0
-236 -233 -235 -143 -146 -144 0
238 235 -143 0
238 -235 143 0
-238 235 143 0
-238 -235 -143 0
237 146 -144 0
237 -146 144 0
-237 146 144 0
-237 -146 -144 0
239 -236 238 0
239 -236 142 0
-239 236 238 0
-239 236 142 0
239 -236 141 -144 0
239 -236 -141 144 0
-239 236 141 -144 0
-239 236 -141 144 0
239 236 -238 141 144 -142 0
239 236 -238 -141 -144 -142 0
-239 -236 -238 141 144 -142 0
-239 -236 -238 -141 -144 -142 0
241 238 -141 0
241 -238 141 0
-241 238 141 0
-241 -238 -141 0
240 144 -142 0
240 -144 142 0
-240 144 142 0
-240 -144 -142 0
242 -239 241 0
242 -239 140 0
-242 239 241 0
-242 239 140 0
242 -239 139 -142 0
242 -239 -139 142 0
-242 239 139 -142 0
-242 239 -139 142 0
242 239 -241 139 142 -140 0
242 239 -241 -139 -142 -140 0
-242 -239 -241 139 142 -140 0
-242 -239 -241 -139 -142 -140 0
244 241 -139 0
244 -241 139 0
-244 241 139 0
-244 -241 -139 0
243 142 -140 0
243 -142 140 0
-243 142 140 0
-243 -142 -140 0
245 -242 244 0
245 -242 138 0
-245 242 244 0
-245 242 138 0
245 -242 137 -140 0
245 -242 -137 140 0
-245 242 137 -140 0
-245 242 -137 140 0
245 242 -244 137 140 -138 0
245 242 -244 -137 -140 -138 0
-245 -242 -244 137 140 -138 0
-245 -242 -244 -137 -140 -138 0
247 244 -137 0
247 -244 137 0
-247 244 137 0
-247 -244 -137 0
246 140 -138 0
246 -140 138 0
-246 140 138 0
-246 -140 -138 0
248 -245 247 0
248 -245 136 0
-248 245 247 0
-248 245 136 0
248 -245 135 -138 0
248 -245 -135 138 0
-248 245 135 -138 0
-248 245 -135 138 0
248 245 -247 135 138 -136 0
248 245 -247 -135 -138 -136 0
-248 -245 -247 135 138 -136 0
-248 -245 -247 -135 -138 -136 0
250 247 -135 0
250 -247 135 0
-250 247 135 0
-250 -247 -135 0
249 138 -136 0
249 -138 136 0
-249 138 136 0
-249 -138 -136 0
251 -248 250 0
251 -248 134 0
-251 248 250 0
-251 248 134 0
251 -248 133 -136 0
251 -248 -133 136 0
-251 248 133 -136 0
-251 248 -133 136 0
251 248 -250 133 136 -134 0
251 248 -250 -133 -136 -134 0
-251 -248 -250 133 136 -134 0
-251 -248 -250 -133 -136 -134 0
253 250 -133 0
253 -250 133 0
-253 250 133 0
-253 -250 -133 0
252 136 -134 0
252 -136 134 0
-252 136 134 0
-252 -136 -134 0
254 -251 253 0
254 -251 132 0
-254 251 253 0
-254 251 132 0
254 -251 131 -134 0
254 -251 -131 134 0
-254 251 131 -134 0
-254 251 -131 134 0
254 251 -253 131 134 -132 0
254 251 -253 -131 -134 -132 0
-254 -251 -253 131 134 -132 0
-254 -251 -253 -131 -134 -132 0
256 253 -131 0
256 -253 131 0
-256 253 131 0
-256 -253 -131 0
255 134 -132 0
255 -134 132 0
-255 134 132 0
-255 -134 -132 0
257 -254 256 0
257 -254 130 0
-257 254 256 0
-257 254 130 0
257 -254 129 -132 0
257 -254 -129 132 0
-257 254 129 -132 0
-257 254 -129 132 0
257 254 -256 129 132 -130 0
257 254 -256 -129 -132 -130 0
-257 -254 -256 129 132 -130 0
-257 -254 -256 -129 -132 -130 0
259 256 -129 0
259 -256 129 0
-259 256 129 0
-259 -256 -129 0
258 132 -130 0
258 -132 130 0
-258 132 130 0
-258 -132 -130 0
260 -257 259 0
260 -257 128 0
-260 257 259 0
-260 257 128 0
260 -257 127 -130 0
260 -257 -127 130 0
-260 257 127 -130 0
-260 257 -127 130 0
260 257 -259 127 130 -128 0
260 257 -259 -127 -130 -128 0
-260 -257 -259 127 130 -128 0
-260 -257 -259 -127 -130 -128 0
262 259 -127 0
262 -259 127 0
-262 259 127 0
-262 -259 -127 0
261 130 -128 0
261 -130 128 0
-261 130 128 0
-261 -130 -128 0
263 -260 262 0
263 -260 126 0
-263 260 262 0
-263 260 126 0
263 -260 125 -128 0
263 -260 -125 128 0
-263 260 125 -128 0
-263 260 -125 128 0
263 260 -262 125 128 -126 0
263 260 -262 -125 -128 -126 0
-263 -260 -262 125 128 -126 0
-263 -260 -262 -125 -128 -126 0
265 262 -125 0
265 -262 125 0
-265 262 125 0
-265 -262 -125 0
264 128 -126 0
264 -128 126 0
-264 128 126 0
-264 -128 -126 0
266 -263 265 0
266 -263 124 0
-266 263 265 0
-266 263 124 0
266 -263 123 -126 0
266 -263 -123 126 0
-266 263 123 -126 0
-266 263 -123 126 0
266 263 -265 123 126 -124 0
266 263 -265 -123 -126 -124 0
-266 -263 -265 123 126 -124 0
-266 -263 -265 -123 -126 -124 0
268 265 -123 0
268 -265 123 0
-268 265 123 0
-268 -265 -123 0
267 126 -124 0
267 -126 124 0
-267 126 124 0
-267 -126 -124 0
269 -266 268 0
269 -266 122 0
-269 266 268 0
-269 266 122 0
269 -266 121 -124 0
269 -266 -121 124 0
-269 266 121 -124 0
-269 266 -121 124 0
269 266 -268 121 124 -122 0
269 266 -268 -121 -124 -122 0
-269 -266 -268 121 124 -122 0
-269 -266 -268 -121 -124 -122 0
271 268 -121 0
271 -268 121 0
-271 268 121 0
-271 -268 -121 0
270 124 -122 0
270 -124 122 0
-270 124 122 0
-270 -124 -122 0
272 -269 271 0
272 -269 120 0
-272 269 271 0
-272 269 120 0
272 -269 119 -122 0
272 -269 -119 122 0
-272 269 119 -122 0
-272 269 -119 122 0
272 269 -271 119 122 -120 0
272 269 -271 -119 -122 -120 0
-272 -269 -271 119 122 -120 0
-272 -269 -271 -119 -122 -120 0
274 271 -119 0
274 -271 119 0
-274 271 119 0
-274 -271 -119 0
273 122 -120 0
273 -122 120 0
-273 122 120 0
-273 -122 -120 0
275 -272 274 0
275 -272 118 0
-275 272 274 0
-275 272 118 0
275 -272 117 -120 0
275 -272 -117 120 0
-275 272 117 -120 0
-275 272 -117 120 0
275 272 -274 117 120 -118 0
275 272 -274 -117 -120 -118 0
-275 -272 -274 117 120 -118 0
-275 -272 -274 -117 -120 -118 0
277 274 -117 0
277 -274 117 0
-277 274 117 0
-277 -274 -117 0
276 120 -118 0
276 -120 118 0
-276 120 118 0
-276 -120 -118 0
278 -275 277 0
278 -275 116 0
-278 275 277 0
-278 275 116 0
278 -275 115 -118 0
278 -275 -115 118 0
-278 275 115 -118 0
-278 275 -115 118 0
278 275 -277 115 118 -116 0
278 275 -277 -115 -118 -116 0
-278 -275 -277 115 118 -116 0
-278 -275 -277 -115 -118 -116 0
280 277 -115 0
280 -277 115 0
-280 277 115 0
-280 -277 -115 0
279 118 -116 0
279 -118 116 0
-279 118 116 0
-279 -118 -116 0
281 -278 280 0
281 -278 114 0
-281 278 280 0
-281 278 114 0
281 -278 113 -116 0
281 -278 -113 116 0
-281 278 113 -116 0
-281 278 -113 116 0
281 278 -280 113 116 -114 0
281 278 -280 -113 -116 -114 0
-281 -278 -280 113 116 -114 0
-281 -278 -280 -113 -116 -114 0
283 280 -113 0
283 -280 113 0
-283 280 113 0
-283 -280 -113 0
282 116 -114 0
282 -116 114 0
-282 116 114 0
-282 -116 -114 0
284 -281 283 0
284 -281 112 0
-284 281 283 0
-284 281 112 0
284 -281 111 -114 0
284 -281 -111 114 0
-284 281 111 -114 0
-284 281 -111 114 0
284 281 -283 111 114 -112 0
284 281 -283 -111 -114 -112 0
-284 -281 -283 111 114 -112 0
-284 -281 -283 -111 -114 -112 0
286 283 -111 0
286 -283 111 0
-286 283 111 0
-286 -283 -111 0
285 114 -112 0
285 -114 112 0
-285 114 112 0
-285 -114 -112 0
287 -284 286 0
287 -284 110 0
-287 284 286 0
-287 284 110 0
287 -284 109 -112 0
287 -284 -109 112 0
-287 284 109 -112 0
-287 284 -109 112 0
287 284 -286 109 112 -110 0
287 284 -286 -109 -112 -110 0
-287 -284 -286 109 112 -110 0
-287 -284 -286 -109 -112 -110 0
289 286 -109 0
289 -286 109 0
-289 286 109 0
-289 -286 -109 0
288 112 -110 0
288 -112 110 0
-288 112 110 0
-288 -112 -110 0
290 -287 289 0
290 -287 108 0
-290 287 289 0
-290 287 108 0
290 -287 107 -110 0
290 -287 -107 110 0
-290 287 107 -110 0
-290 287 -107 110 0
290 287 -289 107 110 -108 0
290 287 -289 -107 -110 -108 0
-290 -287 -289 107 110 -108 0
-290 -287 -289 -107 -110 -108 0
292 289 -107 0
292 -289 107 0
-292 289 107 0
-292 -289 -107 0
291 110 -108 0
291 -110 108 0
-291 110 108 0
-291 -110 -108 0
293 -290 292 0
293 -290 106 0
-293 290 292 0
-293 290 106 0
293 -290 105 -108 0
293 -290 -105 108 0
-293 290 105 -108 0
-293 290 -105 108 0
293 290 -292 105 108 -106 0
293 290 -292 -105 -108 -106 0
-293 -290 -292 105 108 -106 0
-293 -290 -292 -105 -108 -106 0
295 292 -105 0
295 -292 105 0
-295 292 105 0
-295 -292 -105 0
294 108 -106 0
294 -108 106 0
-294 108 106 0
-294 -108 -106 0
296 -293 295 0
296 -293 104 0
-296 293 295 0
-296 293 104 0
296 -293 103 -106 0
296 -293 -103 106 0
-296 293 103 -106 0
-296 293 -103 106 0
296 293 -295 103 106 -104 0
296 293 -295 -103 -106 -104 0
-296 -293 -295 103 106 -104 0
-296 -293 -295 -103 -106 -104 0
298 295 -103 0
298 -295 103 0
-298 295 103 0
-298 -295 -103 0
297 106 -104 0
297 -106 104 0
-297 106 104 0
-297 -106 -104 0
299 -296 298 0
299 -296 102 0
-299 296 298 0
-299 296 102 0
299 -296 101 -104 0
299 -296 -101 104 0
-299 296 101 -104 0
-299 296 -101 104 0
299 296 -298 101 104 -102 0
299 296 -298 -101 -104 -102 0
-299 -296 -298 101 104 -102 0
-299 -296 -298 -101 -104 -102 0
301 298 -101 0
301 -298 101 0
-301 298 101 0
-301 -298 -101 0
300 104 -102 0
300 -104 102 0
-300 104 102 0
-300 -104 -102 0
302 -299 301 0
302 -299 100 0
-302 299 301 0
-302 299 100 0
302 -299 99 -102 0
302 -299 -99 102 0
-302 299 99 -102 0
-302 299 -99 102 0
302 299 -301 99 102 -100 0
302 299 -301 -99 -102 -100 0
-302 -299 -301 99 102 -100 0
-302 -299 -301 -99 -102 -100 0
304 301 -99 0
304 -301 99 0
-304 301 99 0
-304 -301 -99 0
303 102 -100 0
303 -102 100 0
-303 102 100 0
-303 -102 -100 0
305 -302 304 0
305 -302 98 0
-305 302 304 0
-305 302 98 0
305 -302 97 -100 0
305 -302 -97 100 0
-305 302 97 -100 0
-305 302 -97 100 0
305 302 -304 97 100 -98 0
305 302 -304 -97 -100 -98 0
-305 -302 -304 97 100 -98 0
-305 -302 -304 -97 -100 -98 0
307 304 -97 0
307 -304 97 0
-307 304 97 0
-307 -304 -97 0
306 100 -98 0
306 -100 98 0
-306 100 98 0
-306 -100 -98 0
308 -305 307 0
308 -305 96 0
-308 305 307 0
-308 305 96 0
308 -305 95 -98 0
308 -305 -95 98 0
-308 305 95 -98 0
-308 305 -95 98 0
308 305 -307 95 98 -96 0
308 305 -307 -95 -98 -96 0
-308 -305 -307 95 98 -96 0
-308 -305 -307 -95 -98 -96 0
310 307 -95 0
310 -307 95 0
-310 307 95 0
-310 -307 -95 0
309 98 -96 0
309 -98 96 0
-309 98 96 0
-309 -98 -96 0
311 -308 310 0
311 -308 94 0
-311 308 310 0
-311 308 94 0
311 -308 93 -96 0
311 -308 -93 96 0
-311 308 93 -96 0
-311 308 -93 96 0
311 308 -310 93 96 -94 0
311 308 -310 -93 -96 -94 0
-311 -308 -310 93 96 -94 0
-311 -308 -310 -93 -96 -94 0
313 310 -93 0
313 -310 93 0
-313 310 93 0
-313 -310 -93 0
312 96 -94 0
312 -96 94 0
-312 96 94 0
-312 -96 -94 0
314 -311 313 0
314 -311 92 0
-314 311 313 0
-314 311 92 0
314 -311 91 -94 0
314 -311 -91 94 0
-314 311 91 -94 0
-314 311 -91 94 0
314 311 -313 91 94 -92 0
314 311 -313 -91 -94 -92 0
-314 -311 -313 91 94 -92 0
-314 -311 -313 -91 -94 -92 0
316 313 -91 0
316 -313 91 0
-316 313 91 0
-316 -313 -91 0
315 94 -92 0
315 -94 92 0
-315 94 92 0
-315 -94 -92 0
317 -314 316 0
317 -314 90 0
-317 314 316 0
-317 314 90 0
317 -314 89 -92 0
317 -314 -89 92 0
-317 314 89 -92 0
-317 314 -89 92 0
317 314 -316 89 92 -90 0
317 314 -316 -89 -92 -90 0
-317 -314 -316 89 92 -90 0
-317 -314 -316 -89 -92 -90 0
319 316 -89 0
319 -316 89 0
-319 316 89 0
-319 -316 -89 0
318 92 -90 0
318 -92 90 0
-318 92 90 0
-318 -92 -90 0
320 -317 319 0
320 -317 88 0
-320 317 319 0
-320 317 88 0
320 -317 87 -90 0
320 -317 -87 90 0
-320 317 87 -90 0
-320 317 -87 90 0
320 317 -319 87 90 -88 0
320 317 -319 -87 -90 -88 0
-320 -317 -319 87 90 -88 0
-320 -317 -319 -87 -90 -88 0
322 319 -87 0
322 -319 87 0
-322 319 87 0
-322 -319 -87 0
321 90 -88 0
321 -90 88 0
-321 90 88 0
-321 -90 -88 0
323 -320 322 0
323 -320 86 0
-323 320 322 0
-323 320 86 0
323 -320 85 -88 0
323 -320 -85 88 0
-323 320 85 -88 0
-323 320 -85 88 0
323 320 -322 85 88 -86 0
323 320 -322 -85 -88 -86 0
-323 -320 -322 85 88 -86 0
-323 -320 -322 -85 -88 -86 0
325 322 -85 0
325 -322 85 0
-325 322 85 0
-325 -322 -85 0
324 88 -86 0
324 -88 86 0
-324 88 86 0
-324 -88 -86 0
326 -323 325 0
326 -323 84 0
-326 323 325 0
-326 323 84 0
326 -323 83 -86 0
326 -323 -83 86 0
-326 323 83 -86 0
-326 323 -83 86 0
326 323 -325 83 86 -84 0
326 323 -325 -83 -86 -84 0
-326 -323 -325 83 86 -84 0
-326 -323 -325 -83 -86 -84 0
328 325 -83 0
328 -325 83 0
-328 325 83 0
-328 -325 -83 0
327 86 -84 0
327 -86 84 0
-327 86 84 0
-327 -86 -84 0
329 -326 328 0
329 -326 82 0
-329 326 328 0
-329 326 82 0
329 -326 81 -84 0
329 -326 -81 84 0
-329 326 81 -84 0
-329 326 -81 84 0
329 326 -328 81 84 -82 0
329 326 -328 -81 -84 -82 0
-329 -326 -328 81 84 -82 0
-329 -326 -328 -81 -84 -82 0
331 328 -81 0
331 -328 81 0
-331 328 81 0
-331 -328 -81 0
330 84 -82 0
330 -84 82 0
-330 84 82 0
-330 -84 -82 0
332 -329 331 0
332 -329 80 0
-332 329 331 0
-332 329 80 0
332 -329 79 -82 0
332 -329 -79 82 0
-332 329 79 -82 0
-332 329 -79 82 0
332 329 -331 79 82 -80 0
332 329 -331 -79 -82 -80 0
-332 -329 -331 79 82 -80 0
-332 -329 -331 -79 -82 -80 0
334 331 -79 0
334 -331 79 0
-334 331 79 0
-334 -331 -79 0
333 82 -80 0
333 -82 80 0
-333 82 80 0
-333 -82 -80 0
335 -332 334 0
335 -332 78 0
-335 332 334 0
-335 332 78 0
335 -332 77 -80 0
335 -332 -77 80 0
-335 332 77 -80 0
-335 332 -77 80 0
335 332 -334 77 80 -78 0
335 332 -334 -77 -80 -78 0
-335 -332 -334 77 80 -78 0
-335 -332 -334 -77 -80 -78 0
337 334 -77 0
337 -334 77 0
-337 334 77 0
-337 -334 -77 0
336 80 -78 0
336 -80 78 0
-336 80 78 0
-336 -80 -78 0
338 -335 337 0
338 -335 76 0
-338 335 337 0
-338 335 76 0
338 -335 75 -78 0
338 -335 -75 78 0
-338 335 75 -78 0
-338 335 -75 78 0
338 335 -337 75 78 -76 0
338 335 -337 -75 -78 -76 0
-338 -335 -337 75 78 -76 0
-338 -335 -337 -75 -78 -76 0
340 337 -75 0
340 -337 75 0
-340 337 75 0
-340 -337 -75 0
339 78 -76 0
339 -78 76 0
-339 78 76 0
-339 -78 -76 0
341 -338 340 0
341 -338 74 0
-341 338 340 0
-341 338 74 0
341 -338 73 -76 0
341 -338 -73 76 0
-341 338 73 -76 0
-341 338 -73 76 0
341 338 -340 73 76 -74 0
341 338 -340 -73 -76 -74 0
-341 -338 -340 73 76 -74 0
-341 -338 -340 -73 -76 -74 0
343 340 -73 0
343 -340 73 0
-343 340 73 0
-343 -340 -73 0
342 76 -74 0
342 -76 74 0
-342 76 74 0
-342 -76 -74 0
344 -341 343 0
344 -341 72 0
-344 341 343 0
-344 341 72 0
344 -341 71 -74 0
344 -341 -71 74 0
-344 341 71 -74 0
-344 341 -71 74 0
344 341 -343 71 74 -72 0
344 341 -343 -71 -74 -72 0
-344 -341 -343 71 74 -72 0
-344 -341 -343 -71 -74 -72 0
346 343 -71 0
346 -343 71 0
-346 343 71 0
-346 -343 -71 0
345 74 -72 0
345 -74 72 0
-345 74 72 0
-345 -74 -72 0
347 -344 346 0
347 -344 70 0
-347 344 346 0
-347 344 70 0
347 -344 69 -72 0
347 -344 -69 72 0
-347 344 69 -72 0
-347 344 -69 72 0
347 344 -346 69 72 -70 0
347 344 -346 -69 -72 -70 0
-347 -344 -346 69 72 -70 0
-347 -344 -346 -69 -72 -70 0
349 346 -69 0
349 -346 69 0
-349 346 69 0
-349 -346 -69 0
348 72 -70 0
348 -72 70 0
-348 72 70 0
-348 -72 -70 0
350 -347 349 0
350 -347 68 0
-350 347 349 0
-350 347 68 0
350 -347 67 -70 0
350 -347 -67 70 0
-350 347 67 -70 0
-350 347 -67 70 0
350 347 -349 67 70 -68 0
350 347 -349 -67 -70 -68 0
-350 -347 -349 67 70 -68 0
-350 -347 -349 -67 -70 -68 0
352 349 -67 0
352 -349 67 0
-352 349 67 0
-352 -349 -67 0
351 70 -68 0
351 -70 68 0
-351 70 68 0
-351 -70 -68 0
353 -350 352 0
353 -350 66 0
-353 350 352 0
-353 350 66 0
353 -350 65 -68 0
353 -350 -65 68 0
-353 350 65 -68 0
-353 350 -65 68 0
353 350 -352 65 68 -66 0
353 350 -352 -65 -68 -66 0
-353 -350 -352 65 68 -66 0
-353 -350 -352 -65 -68 -66 0
355 352 -65 0
355 -352 65 0
-355 352 65 0
-355 -352 -65 0
354 68 -66 0
354 -68 66 0
-354 68 66 0
-354 -68 -66 0
356 -353 355 0
356 -353 64 0
-356 353 355 0
-356 353 64 0
356 -353 63 -66 0
356 -353 -63 66 0
-356 353 63 -66 0
-356 353 -63 66 0
356 353 -355 63 66 -64 0
356 353 -355 -63 -66 -64 0
-356 -353 -355 63 66 -64 0
-356 -353 -355 -63 -66 -64 0
358 355 -63 0
358 -355 63 0
-358 355 63 0
-358 -355 -63 0
357 66 -64 0
357 -66 64 0
-357 66 64 0
-357 -66 -64 0
359 -356 358 0
359 -356 62 0
-359 356 358 0
-359 356 62 0
359 -356 61 -64 0
359 -356 -61 64 0
-359 356 61 -64 0
-359 356 -61 64 0
359 356 -358 61 64 -62 0
359 356 -358 -61 -64 -62 0
-359 -356 -358 61 64 -62 0
-359 -356 -358 -61 -64 -62 0
361 358 -61 0
361 -358 61 0
-361 358 61 0
-361 -358 -61 0
360 64 -62 0
360 -64 62 0
-360 64 62 0
-360 -64 -62 0
362 -359 361 0
362 -359 60 0
-362 359 361 0
-362 359 60 0
362 -359 59 -62 0
362 -359 -59 62 0
-362 359 59 -62 0
-362 359 -59 62 0
362 359 -361 59 62 -60 0
362 359 -361 -59 -62 -60 0
-362 -359 -361 59 62 -60 0
-362 -359 -361 -59 -62 -60 0
364 361 -59 0
364 -361 59 0
-364 361 59 0
-364 -361 -59 0
363 62 -60 0
363 -62 60 0
-363 62 60 0
-363 -62 -60 0
365 -362 364 0
365 -362 58 0
-365 362 364 0
-365 362 58 0
365 -362 57 -60 0
365 -362 -57 60 0
-365 362 57 -60 0
-365 362 -57 60 0
365 362 -364 57 60 -58 0
365 362 -364 -57 -60 -58 0
-365 -362 -364 57 60 -58 0
-365 -362 -364 -57 -60 -58 0
367 364 -57 0
367 -364 57 0
-367 364 57 0
-367 -364 -57 0
366 60 -58 0
366 -60 58 0
-366 60 58 0
-366 -60 -58 0
368 -365 367 0
368 -365 56 0
-368 365 367 0
-368 365 56 0
368 -365 55 -58 0
368 -365 -55 58 0
-368 365 55 -58 0
-368 365 -55 58 0
368 365 -367 55 58 -56 0
368 365 -367 -55 -58 -56 0
-368 -365 -367 55 58 -56 0
-368 -365 -367 -55 -58 -56 0
370 367 -55 0
370 -367 55 0
-370 367 55 0
-370 -367 -55 0
369 58 -56 0
369 -58 56 0
-369 58 56 0
-369 -58 -56 0
371 -368 370 0
371 -368 54 0
-371 368 370 0
-371 368 54 0
371 -368 53 -56 0
371 -368 -53 56 0
-371 368 53 -56 0
-371 368 -53 56 0
371 368 -370 53 56 -54 0
371 368 -370 -53 -56 -54 0
-371 -368 -370 53 56 -54 0
-371 -368 -370 -53 -56 -54 0
373 370 -53 0
373 -370 53 0
-373 370 53 0
-373 -370 -53 0
372 56 -54 0
372 -56 54 0
-372 56 54 0
-372 -56 -54 0
374 -371 373 0
374 -371 52 0
-374 371 373 0
-374 371 52 0
374 -371 51 -54 0
374 -371 -51 54 0
-374 371 51 -54 0
-374 371 -51 54 0
374 371 -373 51 54 -52 0
374 371 -373 -51 -54 -52 0
-374 -371 -373 51 54 -52 0
-374 -371 -373 -51 -54 -52 0
376 373 -51 0
376 -373 51 0
-376 373 51 0
-376 -373 -51 0
375 54 -52 0
375 -54 52 0
-375 54 52 0
-375 -54 -52 0
377 -374 376 0
377 -374 50 0
-377 374 376 0
-377 374 50 0
377 -374 49 -52 0
377 -374 -49 52 0
-377 374 49 -52 0
-377 374 -49 52 0
377 374 -376 49 52 -50 0
377 374 -376 -49 -52 -50 0
-377 -374 -376 49 52 -50 0
-377 -374 -376 -49 -52 -50 0
379 376 -49 0
379 -376 49 0
-379 376 49 0
-379 -376 -49 0
378 52 -50 0
378 -52 50 0
-378 52 50 0
-378 -52 -50 0
380 -377 379 0
380 -377 48 0
-380 377 379 0
-380 377 48 0
380 -377 47 -50 0
380 -377 -47 50 0
-380 377 47 -50 0
-380 377 -47 50 0
380 377 -379 47 50 -48 0
380 377 -379 -47 -50 -48 0
-380 -377 -379 47 50 -48 0
-380 -377 -379 -47 -50 -48 0
382 379 -47 0
382 -379 47 0
-382 379 47 0
-382 -379 -47 0
381 50 -48 0
381 -50 48 0
-381 50 48 0
-381 -50 -48 0
383 -380 382 0
383 -380 46 0
-383 380 382 0
-383 380 46 0
383 -380 45 -48 0
383 -380 -45 48 0
-383 380 45 -48 0
-383 380 -45 48 0
383 380 -382 45 48 -46 0
383 380 -382 -45 -48 -46 0
-383 -380 -382 45 48 -46 0
-383 -380 -382 -45 -48 -46 0
385 382 -45 0
385 -382 45 0
-385 382 45 0
-385 -382 -45 0
384 48 -46 0
384 -48 46 0
-384 48 46 0
-384 -48 -46 0
386 -383 385 0
386 -383 44 0
-386 383 385 0
-386 383 44 0
386 -383 43 -46 0
386 -383 -43 46 0
-386 383 43 -46 0
-386 383 -43 46 0
386 383 -385 43 46 -44 0
386 383 -385 -43 -46 -44 0
-386 -383 -385 43 46 -44 0
-386 -383 -385 -43 -46 -44 0
388 385 -43 0
388 -385 43 0
-388 385 43 0
-388 -385 -43 0
387 46 -44 0
387 -46 44 0
-387 46 44 0
-387 -46 -44 0
389 -386 388 0
389 -386 42 0
-389 386 388 0
-389 386 42 0
389 -386 41 -44 0
389 -386 -41 44 0
-389 386 41 -44 0
-389 386 -41 44 0
389 386 -388 41 44 -42 0
389 386 -388 -41 -44 -42 0
-389 -386 -388 41 44 -42 0
-389 -386 -388 -41 -44 -42 0
391 388 -41 0
391 -388 41 0
-391 388 41 0
-391 -388 -41 0
390 44 -42 0
390 -44 42 0
-390 44 42 0
-390 -44 -42 0
392 -389 391 0
392 -389 40 0
-392 389 391 0
-392 389 40 0
392 -389 39 -42 0
392 -389 -39 42 0
-392 389 39 -42 0
-392 389 -39 42 0
392 389 -391 39 42 -40 0
392 389 -391 -39 -42 -40 0
-392 -389 -391 39 42 -40 0
-392 -389 -391 -39 -42 -40 0
394 391 -39 0
394 -391 39 0
-394 391 39 0
-394 -391 -39 0
393 42 -40 0
393 -42 40 0
-393 42 40 0
-393 -42 -40 0
395 -392 394 0
395 -392 38 0
-395 392 394 0
-395 392 38 0
395 -392 37 -40 0
395 -392 -37 40 0
-395 392 37 -40 0
-395 392 -37 40 0
395 392 -394 37 40 -38 0
395 392 -394 -37 -40 -38 0
-395 -392 -394 37 40 -38 0
-395 -392 -394 -37 -40 -38 0
397 394 -37 0
397 -394 37 0
-397 394 37 0
-397 -394 -37 0
396 40 -38 0
396 -40 38 0
-396 40 38 0
-396 -40 -38 0
398 -395 397 0
398 -395 36 0
-398 395 397 0
-398 395 36 0
398 -395 35 -38 0
398 -395 -35 38 0
-398 395 35 -38 0
-398 395 -35 38 0
398 395 -397 35 38 -36 0
398 395 -397 -35 -38 -36 0
-398 -395 -397 35 38 -36 0
-398 -395 -397 -35 -38 -36 0
400 397 -35 0
400 -397 35 0
-400 397 35 0
-400 -397 -35 0
399 38 -36 0
399 -38 36 0
-399 38 36 0
-399 -38 -36 0
401 -398 400 0
401 -398 34 0
-401 398 400 0
-401 398 34 0
401 -398 33 -36 0
401 -398 -33 36 0
-401 398 33 -36 0
-401 398 -33 36 0
401 398 -400 33 36 -34 0
401 398 -400 -33 -36 -34 0
-401 -398 -400 33 36 -34 0
-401 -398 -400 -33 -36 -34 0
403 400 -33 0
403 -400 33 0
-403 400 33 0
-403 -400 -33 0
402 36 -34 0
402 -36 34 0
-402 36 34 0
-402 -36 -34 0
404 -401 403 0
404 -401 32 0
-404 401 403 0
-404 401 32 0
404 -401 31 -34 0
404 -401 -31 34 0
-404 401 31 -34 0
-404 401 -31 34 0
404 401 -403 31 34 -32 0
404 401 -403 -31 -34 -32 0
-404 -401 -403 31 34 -32 0
-404 -401 -403 -31 -34 -32 0
406 403 -31 0
406 -403 31 0
-406 403 31 0
-406 -403 -31 0
405 34 -32 0
405 -34 32 0
-405 34 32 0
-405 -34 -32 0
407 -404 406 0
407 -404 30 0
-407 404 406 0
-407 404 30 0
407 -404 29 -32 0
407 -404 -29 32 0
-407 404 29 -32 0
-407 404 -29 32 0
407 404 -406 29 32 -30 0
407 404 -406 -29 -32 -30 0
-407 -404 -406 29 32 -30 0
-407 -404 -406 -29 -32 -30 0
409 406 -29 0
409 -406 29 0
-409 406 29 0
-409 -406 -29 0
408 32 -30 0
408 -32 30 0
-408 32 30 0
-408 -32 -30 0
410 -407 409 0
410 -407 28 0
-410 407 409 0
-410 407 28 0
410 -407 27 -30 0
410 -407 -27 30 0
-410 407 27 -30 0
-410 407 -27 30 0
410 407 -409 27 30 -28 0
410 407 -409 -27 -30 -28 0
-410 -407 -409 27 30 -28 0
-410 -407 -409 -27 -30 -28 0
412 409 -27 0
412 -409 27 0
-412 409 27 0
-412 -409 -27 0
411 30 -28 0
411 -30 28 0
-411 30 28 0
-411 -30 -28 0
413 -410 412 0
413 -410 26 0
-413 410 412 0
-413 410 26 0
413 -410 25 -28 0
413 -410 -25 28 0
-413 410 25 -28 0
-413 410 -25 28 0
413 410 -412 25 28 -26 0
413 410 -412 -25 -28 -26 0
-413 -410 -412 25 28 -26 0
-413 -410 -412 -25 -28 -26 0
415 412 -25 0
415 -412 25 0
-415 412 25 0
-415 -412 -25 0
414 28 -26 0
414 -28 26 0
-414 28 26 0
-414 -28 -26 0
416 -413 415 0
416 -413 24 0
-416 413 415 0
-416 413 24 0
416 -413 23 -26 0
416 -413 -23 26 0
-416 413 23 -26 0
-416 413 -23 26 0
416 413 -415 23 26 -24 0
416 413 -415 -23 -26 -24 0
-416 -413 -415 23 26 -24 0
-416 -413 -415 -23 -26 -24 0
418 415 -23 0
418 -415 23 0
-418 415 23 0
-418 -415 -23 0
417 26 -24 0
417 -26 24 0
-417 26 24 0
-417 -26 -24 0
419 -416 418 0
419 -416 22 0
-419 416 418 0
-419 416 22 0
419 -416 21 -24 0
419 -416 -21 24 0
-419 416 21 -24 0
-419 416 -21 24 0
419 416 -418 21 24 -22 0
419 416 -418 -21 -24 -22 0
-419 -416 -418 21 24 -22 0
-419 -416 -418 -21 -24 -22 0
421 418 -21 0
421 -418 21 0
-421 418 21 0
-421 -418 -21 0
420 24 -22 0
420 -24 22 0
-420 24 22 0
-420 -24 -22 0
422 -419 421 0
422 -419 20 0
-422 419 421 0
-422 419 20 0
422 -419 19 -22 0
422 -419 -19 22 0
-422 419 19 -22 0
-422 419 -19 22 0
422 419 -421 19 22 -20 0
422 419 -421 -19 -22 -20 0
-422 -419 -421 19 22 -20 0
-422 -419 -421 -19 -22 -20 0
424 421 -19 0
424 -421 19 0
-424 421 19 0
-424 -421 -19 0
423 22 -20 0
423 -22 20 0
-423 22 20 0
-423 -22 -20 0
425 -422 424 0
425 -422 18 0
-425 422 424 0
-425 422 18 0
425 -422 17 -20 0
425 -422 -17 20 0
-425 422 17 -20 0
-425 422 -17 20 0
425 422 -424 17 20 -18 0
425 422 -424 -17 -20 -18 0
-425 -422 -424 17 20 -18 0
-425 -422 -424 -17 -20 -18 0
427 424 -17 0
427 -424 17 0
-427 424 17 0
-427 -424 -17 0
426 20 -18 0
426 -20 18 0
-426 20 18 0
-426 -20 -18 0
428 -425 427 0
428 -425 16 0
-428 425 427 0
-428 425 16 0
428 -425 15 -18 0
428 -425 -15 18 0
-428 425 15 -18 0
-428 425 -15 18 0
428 425 -427 15 18 -16 0
428 425 -427 -15 -18 -16 0
-428 -425 -427 15 18 -16 0
-428 -425 -427 -15 -18 -16 0
430 427 -15 0
430 -427 15 0
-430 427 15 0
-430 -427 -15 0
429 18 -16 0
429 -18 16 0
-429 18 16 0
-429 -18 -16 0
431 -428 430 0
431 -428 14 0
-431 428 430 0
-431 428 14 0
431 -428 13 -16 0
431 -428 -13 16 0
-431 428 13 -16 0
-431 428 -13 16 0
431 428 -430 13 16 -14 0
431 428 -430 -13 -16 -14 0
-431 -428 -430 13 16 -14 0
-431 -428 -430 -13 -16 -14 0
433 430 -13 0
433 -430 13 0
-433 430 13 0
-433 -430 -13 0
432 16 -14 0
432 -16 14 0
-432 16 14 0
-432 -16 -14 0
434 -431 433 0
434 -431 12 0
-434 431 433 0
-434 431 12 0
434 -431 11 -14 0
434 -431 -11 14 0
-434 431 11 -14 0
-434 431 -11 14 0
434 431 -433 11 14 -12 0
434 431 -433 -11 -14 -12 0
-434 -431 -433 11 14 -12 0
-434 -431 -433 -11 -14 -12 0
436 433 -11 0
436 -433 11 0
-436 433 11 0
-436 -433 -11 0
435 14 -12 0
435 -14 12 0
-435 14 12 0
-435 -14 -12 0
437 -434 436 0
437 -434 10 0
-437 434 436 0
-437 434 10 0
437 -434 9 -12 0
437 -434 -9 12 0
-437 434 9 -12 0
-437 434 -9 12 0
437 434 -436 9 12 -10 0
437 434 -436 -9 -12 -10 0
-437 -434 -436 9 12 -10 0
-437 -434 -436 -9 -12 -10 0
439 436 -9 0
439 -436 9 0
-439 436 9 0
-439 -436 -9 0
438 12 -10 0
438 -12 10 0
-438 12 10 0
-438 -12 -10 0
440 -437 439 0
440 -437 8 0
-440 437 439 0
-440 437 8 0
440 -437 7 -10 0
440 -437 -7 10 0
-440 437 7 -10 0
-440 437 -7 10 0
440 437 -439 7 10 -8 0
440 437 -439 -7 -10 -8 0
-440 -437 -439 7 10 -8 0
-440 -437 -439 -7 -10 -8 0
442 439 -7 0
442 -439 7 0
-442 439 7 0
-442 -439 -7 0
441 10 -8 0
441 -10 8 0
-441 10 8 0
-441 -10 -8 0
443 -440 442 0
443 -440 6 0
-443 440 442 0
-443 440 6 0
443 -440 5 -8 0
443 -440 -5 8 0
-443 440 5 -8 0
-443 440 -5 8 0
443 440 -442 5 8 -6 0
443 440 -442 -5 -8 -6 0
-443 -440 -442 5 8 -6 0
-443 -440 -442 -5 -8 -6 0
445 442 -5 0
445 -442 5 0
-445 442 5 0
-445 -442 -5 0
444 8 -6 0
444 -8 6 0
-444 8 6 0
-444 -8 -6 0
446 -443 445 0
446 -443 4 0
-446 443 445 0
-446 443 4 0
446 -443 3 -6 0
446 -443 -3 6 0
-446 443 3 -6 0
-446 443 -3 6 0
446 443 -445 3 6 -4 0
446 443 -445 -3 -6 -4 0
-446 -443 -445 3 6 -4 0
-446 -443 -445 -3 -6 -4 0
448 445 -3 0
448 -445 3 0
-448 445 3 0
-448 -445 -3 0
447 6 -4 0
447 -6 4 0
-447 6 4 0
-447 -6 -4 0
449 -446 448 0
449 -446 2 0
-449 446 448 0
-449 446 2 0
449 -446 1 -4 0
449 -446 -1 4 0
-449 446 1 -4 0
-449 446 -1 4 0
449 446 -448 1 4 -2 0
449 446 -448 -1 -4 -2 0
-449 -446 -448 1 4 -2 0
-449 -446 -448 -1 -4 -2 0
451 448 -1 0
451 -448 1 0
-451 448 1 0
-451 -448 -1 0
450 4 -2 0
450 -4 2 0
-450 4 2 0
-450 -4 -2 0
-451 0
-448 0
-450 0
-445 0
-447 0
-442 0
-444 0
-439 0
-441 0
-436 0
-438 0
-433 0
-435 0
-430 0
-432 0
-427 0
-429 0
-424 0
-426 0
-421 0
-423 0
-418 0
-420 0
-415 0
-417 0
-412 0
-414 0
-409 0
-411 0
-406 0
-408 0
-403 0
-405 0
-400 0
-402 0
-397 0
-399 0
-394 0
-396 0
-391 0
-393 0
-388 0
-390 0
-385 0
-387 0
-382 0
-384 0
-379 0
-381 0
-376 0
-378 0
-373 0
-375 0
-370 0
-372 0
-367 0
-369 0
-364 0
-366 0
-361 0
-363 0
-358 0
-360 0
-355 0
-357 0
-352 0
-354 0
-349 0
-351 0
-346 0
-348 0
-343 0
-345 0
-340 0
-342 0
-337 0
-339 0
-334 0
-336 0
-331 0
-333 0
-328 0
-330 0
-325 0
-327 0
-322 0
-324 0
-319 0
-321 0
-316 0
-318 0
-313 0
-315 0
-310 0
-312 0
-307 0
-309 0
-304 0
-306 0
-301 0
-303 0
-298 0
-300 0
-295 0
-297 0
-292 0
-294 0
-289 0
-291 0
-286 0
-288 0
-283 0
-285 0
-280 0
-282 0
-277 0
-279 0
-274 0
-276 0
-271 0
-273 0
-268 0
-270 0
-265 0
-267 0
-262 0
-264 0
-259 0
-261 0
-256 0
-258 0
-253 0
-255 0
-250 0
-252 0
-247 0
-249 0
-244 0
-246 0
-241 0
-243 0
-238 0
-240 0
-235 0
-237 0
-232 0
-234 0
-229 0
-231 0
-226 0
-228 0
-223 0
-225 0
-220 0
-222 0
-217 0
-219 0
-214 0
-216 0
-211 0
-213 0
-208 0
-210 0
-205 0
-207 0
-202 0
-204 0
-199 0
-201 0
-196 0
-198 0
-193 0
-195 0
-190 0
-192 0
-183 0
-189 0
